c generated by ere2max.py
c max 6 7 8 9 10 0
c ind 1 2 3 4 5 0
p cnf 10 30
3 5 8 0
-2 -4 9 0
-4 7 -9 0
2 -5 -10 0
-5 8 9 0
-1 -4 5 0
-5 8 10 0
2 5 10 0
3 -5 -9 0
-1 -3 -4 0
-1 -2 7 0
5 8 -10 0
-1 -2 6 0
3 -4 -10 0
1 3 9 0
1 8 10 0
-6 -8 10 0
-3 6 8 0
5 7 9 0
-2 4 10 0
7 9 10 0
6 -8 10 0
2 -3 5 0
-3 5 -7 0
-6 -8 -9 0
2 6 7 0
2 -5 9 0
-1 -9 -10 0
-6 -9 10 0
4 -5 6 0
